%Mem=30GB
%NProcShared=30
%Chk=ir_efg.chk
#p m06/GenECP scrf=(smd,solvent=benzene) 
   scf=tight integral=(grid=ultrafine) 
   pop=minimal output=pickett IOp(6/82=1)

EFG tensors on the two deuteria

1 1
Ir(Iso=193) -0.39316 0.52862 -0.28985
N(Iso=15) -0.62025 2.35421 0.77082
C(Iso=12) -1.24813 3.41423 0.15023
C(Iso=12) -1.42555 4.66720 0.77330
C(Iso=12) -0.91973 4.85618 2.08638
C(Iso=12) -0.28927 3.77415 2.73159
C(Iso=12) -0.16046 2.54344 2.05538
H(Iso=1)  0.32214 1.68782 2.53176
H(Iso=1)  0.10692 3.86937 3.74666
H(Iso=1)  -1.02651 5.84002 2.55444
C(Iso=12) -2.07893 5.85641 0.09536
N(Iso=15) -2.90532 5.59528 -0.98369
H(Iso=1)  -3.33595 6.39326 -1.45363
H(Iso=1)  -3.17930 4.65566 -1.26678
O(Iso=16) -1.86616 7.03280 0.51766
H(Iso=1)  -1.56506 3.21218 -0.87511
N(Iso=15) -0.85327 -0.60731 1.49824
C(Iso=12) -1.89834 -0.22941 2.31649
C(Iso=12) -2.23651 -0.93841 3.48415
C(Iso=12) -1.48572 -2.07913 3.85242
C(Iso=12) -0.42184 -2.48905 3.01175
C(Iso=12) -0.15494 -1.73651 1.84532
H(Iso=1)  0.63164 -2.06857 1.16403
C(Iso=12) 0.43882 -3.71616 3.22561
N(Iso=15) 0.50233 -4.22396 4.50812
H(Iso=1)  0.11873 -3.73888 5.31820
H(Iso=1)  1.07416 -5.05574 4.66435
O(Iso=16) 1.06648 -4.24213 2.25310
H(Iso=1)  -1.75899 -2.64470 4.75021
H(Iso=1)  -3.08367 -0.60068 4.08812
H(Iso=1)  -2.46624 0.64460 1.99096
H(Iso=2)  -1.96232 0.57369 -0.57677
H(Iso=2)  -0.17556 1.40000 -1.63006
C(Iso=12) -0.38973 -1.09092 -1.47978
N(Iso=15) -1.50182 -1.90220 -1.80049
C(Iso=12) -1.15991 -2.90845 -2.73084
C(Iso=12) 0.17334 -2.75296 -3.02146
H(Iso=1)  0.83343 -3.31068 -3.67911
N(Iso=15) 0.63648 -1.65218 -2.26348
C(Iso=12) 2.01115 -1.19729 -2.42824
C(Iso=12) 2.28883 -0.26565 -3.47306
C(Iso=12) 3.63982 0.07668 -3.71888
C(Iso=12) 4.70625 -0.49996 -2.97789
C(Iso=12) 4.38825 -1.43484 -1.96370
C(Iso=12) 3.04902 -1.81035 -1.67425
C(Iso=12) 2.77796 -2.84638 -0.59513
H(Iso=1)  3.51964 -3.66352 -0.63933
H(Iso=1)  2.86056 -2.40380 0.41667
H(Iso=1)  1.77707 -3.29961 -0.67520
H(Iso=1)  5.19952 -1.90731 -1.39434
C(Iso=12) 6.15204 -0.15912 -3.30644
H(Iso=1)  6.27489 0.91287 -3.54622
H(Iso=1)  6.83016 -0.40627 -2.47077
H(Iso=1)  6.49868 -0.72915 -4.19047
H(Iso=1)  3.86715 0.78756 -4.52402
C(Iso=12) 1.17389 0.32945 -4.31825
H(Iso=1)  0.44611 0.87954 -3.69226
H(Iso=1)  1.57934 1.02244 -5.07496
H(Iso=1)  0.60683 -0.45754 -4.85116
H(Iso=1)  -1.89019 -3.62737 -3.08964
C(Iso=12) -2.88178 -1.75421 -1.35169
C(Iso=12) -3.38674 -2.63144 -0.35462
C(Iso=12) -4.74845 -2.49209 0.02568
C(Iso=12) -5.60394 -1.54203 -0.58057
C(Iso=12) -5.07285 -0.72339 -1.61384
C(Iso=12) -3.72374 -0.81912 -2.02547
C(Iso=12) -3.20126 0.03098 -3.17138
H(Iso=1)  -4.00469 0.66035 -3.59119
H(Iso=1)  -2.37637 0.68609 -2.83413
H(Iso=1)  -2.80244 -0.59740 -3.99092
H(Iso=1)  -5.73131 -0.00702 -2.12254
C(Iso=12) -7.06273 -1.41685 -0.16681
H(Iso=1)  -7.31118 -2.10245 0.66149
H(Iso=1)  -7.30208 -0.38735 0.16092
H(Iso=1)  -7.73823 -1.65181 -1.01134
H(Iso=1)  -5.14928 -3.15850 0.80054
C(Iso=12) -2.54692 -3.74440 0.25339
H(Iso=1)  -1.46656 -3.53066 0.22365
H(Iso=1)  -2.83730 -3.93141 1.30223
H(Iso=1)  -2.70329 -4.69333 -0.29694
N(Iso=15) 1.76603 0.78613 0.14796
C(Iso=12) 2.51067 1.61878 -0.66024
C(Iso=12) 3.79795 2.06539 -0.30635
C(Iso=12) 4.36984 1.65733 0.92060
C(Iso=12) 3.62034 0.79668 1.75921
C(Iso=12) 2.33390 0.39293 1.33059
H(Iso=1)  1.75219 -0.25257 1.99164
C(Iso=12) 4.04704 0.30766 3.12672
N(Iso=15) 5.39383 0.36719 3.42764
H(Iso=1)  6.10683 0.63703 2.75168
H(Iso=1)  5.69163 0.05759 4.35413
O(Iso=16) 3.18811 -0.13768 3.95350
H(Iso=1)  5.35441 2.03847 1.21465
H(Iso=1)  4.33390 2.73582 -0.98403
H(Iso=1)  2.03041 1.92824 -1.58909

C H N O 0
cc-pVDZ
****
Ir 0
S    9   1.00
     34.2048000              0.0173300
     21.3768000             -0.1532030
     13.3624000              0.4419330
      8.3483500             -0.1886920
      4.7316300             -0.7122250
      1.3078500              0.8529050
      0.6243340              0.4997460
      0.1938710              0.0352490
      0.0879490             -0.0070780
S    9   1.00
     34.2048000              0.0057000
     21.3768000              0.0186860
     13.3624000             -0.1098820
      8.3483500             -0.1262300
      4.7316300              0.7876390
      1.3078500             -1.7027670
      0.6243340              0.4383340
      0.1938710              2.1004080
      0.0879490             -1.2318660
S    9   1.00
     34.2048000             -0.0060010
     21.3768000              0.0538850
     13.3624000             -0.1606020
      8.3483500              0.0803950
      4.7316300              0.2575940
      1.3078500             -0.4237510
      0.6243340             -0.3483540
      0.1938710              0.2800310
      0.0879490              0.6545570
S    9   1.00
     34.2048000             -0.0001450
     21.3768000              0.0001550
     13.3624000              0.0004580
      8.3483500              0.0027310
      4.7316300             -0.0111600
      1.3078500              0.0322630
      0.6243340             -0.0309800
      0.1938710             -0.0019260
      0.0879490              0.0244470
S    1   1.00
      0.0375390              1.0000000
P    8   1.00
     20.7204000             -0.0132020
     12.9677000              0.0739520
      5.7222400             -0.2843120
      1.5503800              0.5102230
      0.7826600              0.4795020
      0.3855150              0.1697720
      0.1706090              0.0166680
      0.0728290              0.0012420
P    8   1.00
     20.7204000              0.0068620
     12.9677000             -0.0422290
      5.7222400              0.1771470
      1.5503800             -0.4201130
      0.7826600             -0.4381970
      0.3855150              0.4034530
      0.1706090              0.7048150
      0.0728290              0.1692730
P    8   1.00
     20.7204000              0.0121460
     12.9677000             -0.0723020
      5.7222400              0.3121050
      1.5503800             -1.1249840
      0.7826600              0.0092840
      0.3855150              1.6533010
      0.1706090             -0.6527860
      0.0728290             -0.6166420
P    8   1.00
     20.7204000              0.0035200
     12.9677000             -0.0215200
      5.7222400              0.0890920
      1.5503800             -0.1924180
      0.7826600             -0.2089670
      0.3855150              0.0046730
      0.1706090              0.3828460
      0.0728290              0.5399630
P    1   1.00
      0.0305710              1.0000000
D    7   1.00
     91.4125000              0.0000240
      9.7301300              0.0152170
      6.0771200             -0.0657240
      1.6882000              0.2340050
      0.8237860              0.3845350
      0.3820680              0.3558490
      0.1669650              0.2119760
D    7   1.00
     91.4125000             -0.0000080
      9.7301300              0.0306140
      6.0771200             -0.1301790
      1.6882000              0.7766970
      0.8237860              0.1046450
      0.3820680             -1.0602650
      0.1669650              0.1697160
D    7   1.00
     91.4125000             -0.0000130
      9.7301300             -0.0183130
      6.0771200              0.0780220
      1.6882000             -0.3254460
      0.8237860             -0.4793950
      0.3820680              0.1391480
      0.1669650              0.5831340
D    1   1.00
      0.0672310              1.0000000
F    1   1.00
      1.1759000              1.0000000
F    1   1.00
      0.3847000              1.0000000
G    1   1.00
      0.9577000              1.0000000
****

IR     0
IR-ECP     5     60
h potential
  1
2      1.00000000             0.00000000
s-h potential
  2
2     13.83147400           426.95814900
2      7.04791400            65.33881300
p-h potential
  4
2     11.10643300            88.07544200
2     10.45655200           176.12477000
2      6.37961400            12.68226000
2      5.06472600            24.63594900
d-h potential
  4
2      7.54875400            46.43325800
2      7.26530800            69.63807400
2      3.80096900             6.15024800
2      3.71828000             9.46356000
f-h potential
  2
2      3.09870600             9.48361000
2      3.04946100            12.64274200
g-h potential
  2
2      4.96979000           -10.41069700
2      4.93561400           -12.86319600

