%Mem=64GB
%NProcShared=64
%Chk=ir_precat_efg.chk
#p m06/GenECP scrf=(smd,solvent=benzene) 
   scf=tight integral=(grid=ultrafine) 
   pop=minimal output=pickett IOp(6/82=1)

EFG tensors on the two deuteria in the precatalyst

0 1
 Ir(Iso=193)              -0.21933200    1.00159400    0.01067400
 H(Iso=2)                 -1.79375200    0.83019900    0.21291600
 H(Iso=2)                 -0.60833800    0.77860500   -1.51340700
 C(Iso=12)                -0.20230000   -1.09624000    0.05585800
 N(Iso=15)                -1.33373100   -1.87042900    0.07397600
 C(Iso=12)                -1.03067100   -3.21837500    0.18392200
 C(Iso=12)                 0.31500500   -3.31172200    0.22775300
 H(Iso=1)                  0.98281700   -4.16581000    0.30572800
 N(Iso=15)                 0.80870900   -2.01675400    0.14275500
 C(Iso=12)                 2.22587400   -1.80382200    0.02141300
 C(Iso=12)                 2.78703800   -1.84215100   -1.26385700
 C(Iso=12)                 4.16683100   -1.67503600   -1.37872900
 C(Iso=12)                 4.98127400   -1.49775800   -0.25713000
 C(Iso=12)                 4.38815400   -1.52766400    1.00537600
 C(Iso=12)                 3.01088800   -1.69413600    1.17565900
 C(Iso=12)                 2.40818100   -1.76981400    2.54057300
 H(Iso=1)                  3.18580000   -1.71289700    3.31591200
 H(Iso=1)                  1.68269500   -0.95423600    2.70995900
 H(Iso=1)                  1.85586800   -2.71421900    2.68495200
 H(Iso=1)                  5.01742400   -1.42824400    1.89656700
 C(Iso=12)                 6.45436300   -1.27924100   -0.41211900
 H(Iso=1)                  6.67654300   -0.21542100   -0.60540200
 H(Iso=1)                  7.00717100   -1.56611400    0.49524000
 H(Iso=1)                  6.86273000   -1.85084300   -1.26021500
 H(Iso=1)                  4.62011500   -1.68917900   -2.37618400
 C(Iso=12)                 1.93376100   -2.05049200   -2.47737000
 H(Iso=1)                  1.17702400   -1.25418200   -2.59179200
 H(Iso=1)                  2.54625500   -2.06677500   -3.39044100
 H(Iso=1)                  1.37852900   -3.00288100   -2.42815600
 H(Iso=1)                 -1.81176700   -3.97327500    0.21875000
 C(Iso=12)                -2.70106200   -1.44647700   -0.07165500
 C(Iso=12)                -3.48360300   -1.27377700    1.07871600
 C(Iso=12)                -4.80828500   -0.87786000    0.90286100
 C(Iso=12)                -5.35751300   -0.66852600   -0.36537700
 C(Iso=12)                -4.55172000   -0.88713200   -1.48195100
 C(Iso=12)                -3.21761500   -1.28504000   -1.36080100
 C(Iso=12)                -2.37367700   -1.50496600   -2.57614600
 H(Iso=1)                 -2.99407300   -1.55485000   -3.48287800
 H(Iso=1)                 -1.65141900   -0.68016200   -2.70938700
 H(Iso=1)                 -1.78597400   -2.43617400   -2.51346400
 H(Iso=1)                 -4.97140200   -0.74876000   -2.48454200
 C(Iso=12)                -6.78219500   -0.22856800   -0.50530900
 H(Iso=1)                 -7.46790900   -0.91446600    0.01933000
 H(Iso=1)                 -6.93464500    0.76996500   -0.06213200
 H(Iso=1)                 -7.09423200   -0.17795200   -1.55905000
 H(Iso=1)                 -5.43397900   -0.72567400    1.78974800
 C(Iso=12)                -2.91088900   -1.48412300    2.44267000
 H(Iso=1)                 -2.08197400   -0.77954900    2.63736400
 H(Iso=1)                 -3.67791400   -1.33923200    3.21713200
 H(Iso=1)                 -2.49815200   -2.50041200    2.56261800
 Cl(Iso=35)               -0.06657200    0.82060300    2.55017900
 C(Iso=12)                -0.58478500    3.00481500   -0.86801400
 H(Iso=1)                 -1.60304600    2.95630700   -1.26722500
 C(Iso=12)                -0.46123400    3.13545500    0.52024800
 H(Iso=1)                 -1.39014200    3.17245200    1.10178200
 C(Iso=12)                 0.74631600    3.69355500    1.22521900
 H(Iso=1)                  0.62973300    3.47246500    2.29666400
 H(Iso=1)                  0.75053100    4.79785200    1.13388900
 C(Iso=12)                 0.48440500    3.46622800   -1.83991600
 H(Iso=1)                  1.00478900    4.33877500   -1.40855100
 H(Iso=1)                 -0.00132500    3.83772200   -2.75660600
 C(Iso=12)                 2.08223100    3.11891200    0.73658600
 H(Iso=1)                  2.51422200    3.76370000   -0.04900800
 H(Iso=1)                  2.80358900    3.14514500    1.56884900
 C(Iso=12)                 1.49061100    2.37607000   -2.21487700
 H(Iso=1)                  2.44073000    2.83480800   -2.55309100
 H(Iso=1)                  1.10685700    1.81028800   -3.08198000
 C(Iso=12)                 1.76893800    1.38593700   -1.11362000
 H(Iso=1)                  2.09527700    0.40354400   -1.45714300
 C(Iso=12)                 2.00633900    1.70127200    0.21192500
 H(Iso=1)                  2.44883500    0.92085400    0.83972600

C H N Cl 0
cc-pVDZ
****
Ir 0
S    9   1.00
     34.2048000              0.0173300
     21.3768000             -0.1532030
     13.3624000              0.4419330
      8.3483500             -0.1886920
      4.7316300             -0.7122250
      1.3078500              0.8529050
      0.6243340              0.4997460
      0.1938710              0.0352490
      0.0879490             -0.0070780
S    9   1.00
     34.2048000              0.0057000
     21.3768000              0.0186860
     13.3624000             -0.1098820
      8.3483500             -0.1262300
      4.7316300              0.7876390
      1.3078500             -1.7027670
      0.6243340              0.4383340
      0.1938710              2.1004080
      0.0879490             -1.2318660
S    9   1.00
     34.2048000             -0.0060010
     21.3768000              0.0538850
     13.3624000             -0.1606020
      8.3483500              0.0803950
      4.7316300              0.2575940
      1.3078500             -0.4237510
      0.6243340             -0.3483540
      0.1938710              0.2800310
      0.0879490              0.6545570
S    9   1.00
     34.2048000             -0.0001450
     21.3768000              0.0001550
     13.3624000              0.0004580
      8.3483500              0.0027310
      4.7316300             -0.0111600
      1.3078500              0.0322630
      0.6243340             -0.0309800
      0.1938710             -0.0019260
      0.0879490              0.0244470
S    1   1.00
      0.0375390              1.0000000
P    8   1.00
     20.7204000             -0.0132020
     12.9677000              0.0739520
      5.7222400             -0.2843120
      1.5503800              0.5102230
      0.7826600              0.4795020
      0.3855150              0.1697720
      0.1706090              0.0166680
      0.0728290              0.0012420
P    8   1.00
     20.7204000              0.0068620
     12.9677000             -0.0422290
      5.7222400              0.1771470
      1.5503800             -0.4201130
      0.7826600             -0.4381970
      0.3855150              0.4034530
      0.1706090              0.7048150
      0.0728290              0.1692730
P    8   1.00
     20.7204000              0.0121460
     12.9677000             -0.0723020
      5.7222400              0.3121050
      1.5503800             -1.1249840
      0.7826600              0.0092840
      0.3855150              1.6533010
      0.1706090             -0.6527860
      0.0728290             -0.6166420
P    8   1.00
     20.7204000              0.0035200
     12.9677000             -0.0215200
      5.7222400              0.0890920
      1.5503800             -0.1924180
      0.7826600             -0.2089670
      0.3855150              0.0046730
      0.1706090              0.3828460
      0.0728290              0.5399630
P    1   1.00
      0.0305710              1.0000000
D    7   1.00
     91.4125000              0.0000240
      9.7301300              0.0152170
      6.0771200             -0.0657240
      1.6882000              0.2340050
      0.8237860              0.3845350
      0.3820680              0.3558490
      0.1669650              0.2119760
D    7   1.00
     91.4125000             -0.0000080
      9.7301300              0.0306140
      6.0771200             -0.1301790
      1.6882000              0.7766970
      0.8237860              0.1046450
      0.3820680             -1.0602650
      0.1669650              0.1697160
D    7   1.00
     91.4125000             -0.0000130
      9.7301300             -0.0183130
      6.0771200              0.0780220
      1.6882000             -0.3254460
      0.8237860             -0.4793950
      0.3820680              0.1391480
      0.1669650              0.5831340
D    1   1.00
      0.0672310              1.0000000
F    1   1.00
      1.1759000              1.0000000
F    1   1.00
      0.3847000              1.0000000
G    1   1.00
      0.9577000              1.0000000
****

IR     0
IR-ECP     5     60
h potential
  1
2      1.00000000             0.00000000
s-h potential
  2
2     13.83147400           426.95814900
2      7.04791400            65.33881300
p-h potential
  4
2     11.10643300            88.07544200
2     10.45655200           176.12477000
2      6.37961400            12.68226000
2      5.06472600            24.63594900
d-h potential
  4
2      7.54875400            46.43325800
2      7.26530800            69.63807400
2      3.80096900             6.15024800
2      3.71828000             9.46356000
f-h potential
  2
2      3.09870600             9.48361000
2      3.04946100            12.64274200
g-h potential
  2
2      4.96979000           -10.41069700
2      4.93561400           -12.86319600

